<?xml version = "1.0" encoding="UTF-8" standalone="yes"?>
<CPLEXSolution version="1.2">
 <header
   problemName="mknap7_cut_n3"
   objectiveValue="6.1184210526315788"
   solutionTypeValue="1"
   solutionTypeString="basic"
   solutionStatusValue="1"
   solutionStatusString="optimal"
   solutionMethodString="primal"
   primalFeasible="1"
   dualFeasible="1"
   simplexIterations="0"
   writeLevel="1"/>
 <quality
   epRHS="9.9999999999999995e-07"
   epOpt="9.9999999999999995e-07"
   maxPrimalInfeas="0"
   maxDualInfeas="0"
   maxPrimalResidual="2.6645352591003757e-15"
   maxDualResidual="1.1865508575681361e-15"
   maxX="0.59210526315789469"
   maxPi="0.59539473684210542"
   maxSlack="29.934210526315791"
   maxRedCost="0.8585526315789469"
   kappa="154.38436165206687"/>
 <linearConstraints>
  <constraint name="c0" index="0" status="BS" slack="7.3552631578947372" dual="-0"/>
  <constraint name="c1" index="1" status="BS" slack="0.59210526315789469" dual="-0"/>
  <constraint name="c2" index="2" status="BS" slack="0.76315789473684514" dual="-0"/>
  <constraint name="c3" index="3" status="BS" slack="29.934210526315791" dual="-0"/>
  <constraint name="cut_1" index="4" status="LL" slack="0" dual="0.0065789473684210288"/>
  <constraint name="cut_2" index="5" status="LL" slack="0" dual="0.59539473684210542"/>
  <constraint name="cut_3" index="6" status="BS" slack="0.23684210526316107" dual="-0"/>
 </linearConstraints>
 <variables>
  <variable name="x0" index="0" status="BS" value="0.59210526315789469" reducedCost="0"/>
  <variable name="x1" index="1" status="LL" value="0" reducedCost="-0.18750000000000133"/>
  <variable name="x2" index="2" status="BS" value="0.52631578947368429" reducedCost="0"/>
  <variable name="x3" index="3" status="LL" value="0" reducedCost="-0.8585526315789469"/>
  <variable name="s0" index="4" status="LL" value="0" reducedCost="0"/>
  <variable name="s1" index="5" status="LL" value="0" reducedCost="0"/>
  <variable name="s2" index="6" status="LL" value="0" reducedCost="0"/>
  <variable name="s3" index="7" status="LL" value="0" reducedCost="0"/>
 </variables>
 <objectiveValues>
  <objective index="0" name="" value="6.1184210526315788"/>
 </objectiveValues>
</CPLEXSolution>
